! AWR Design Environment (18666) Thu Aug 13 12:31:06 2026
! Document = 'LP filter modifikace'
! nPorts: 2, nXvals: 91

# MHz S DB R 50
!Freq DBS11 AngS11 DBS21 AngS21 DBS12 AngS12 DBS22 AngS22 
100 -0.0096920489 24.723971 -32.691439 177.33001 -32.691439 177.33001 -0.0026237403 150.11049 
110 -0.013299376 12.667565 -30.150715 169.66105 -30.150715 169.66105 -0.0045934137 146.83762 
120 -0.018392306 0.54678065 -27.74748 161.91125 -27.74748 161.91125 -0.0078405774 143.46755 
130 -0.0257668 -11.859335 -25.446555 153.96148 -25.446555 153.96148 -0.01313247 139.98276 
140 -0.036670566 -24.784062 -23.223211 145.68506 -23.223211 145.68506 -0.02168533 136.36286 
150 -0.053038022 -38.4755 -21.061876 136.9465 -21.061876 136.9465 -0.035409712 132.58447 
160 -0.077816541 -53.194251 -18.95608 127.60301 -18.95608 127.60301 -0.057249532 128.62189 
170 -0.11534176 -69.200985 -16.9093 117.51183 -16.9093 117.51183 -0.09158208 124.44927 
180 -0.17161166 -86.726569 -14.936141 106.54734 -14.936141 106.54734 -0.14452638 120.0452 
190 -0.25409854 -105.9179 -13.062661 94.63177 -13.062661 94.63177 -0.22379419 115.40006 
200 -0.37059161 -126.76161 -11.323786 81.776939 -11.323786 81.776939 -0.33754285 110.52386 
210 -0.52688154 -149.01086 -9.7558133 68.121233 -9.7558133 68.121233 -0.49200657 105.44769 
220 -0.72438529 -172.16789 -8.3844558 53.931235 -8.3844558 53.931235 -0.6889606 100.20996 
230 -0.96007863 164.42904 -7.213719 39.544568 -7.213719 39.544568 -0.92546174 94.828451 
240 -1.2300922 141.43044 -6.2230358 25.271126 -6.2230358 25.271126 -1.1973622 89.276569 
250 -1.5349789 119.30351 -5.3750157 11.308 -5.3750157 11.308 -1.5046819 83.483833 
260 -1.8832121 98.251769 -4.6283789 -2.2888456 -4.6283789 -2.2888456 -1.8553223 77.359225 
270 -2.2918085 78.237942 -3.948798 -15.579172 -3.948798 -15.579172 -2.2658383 70.819756 
280 -2.78537 59.060905 -3.3144196 -28.68932 -3.3144196 -28.68932 -2.7605082 63.81268 
290 -3.394878 40.435726 -2.7168108 -41.763804 -2.7168108 -41.763804 -3.3700713 56.332841 
300 -4.1563369 22.051785 -2.1591249 -54.926861 -2.1591249 -54.926861 -4.1302857 48.441584 
310 -5.1083904 3.6032674 -1.6526135 -68.25496 -1.6526135 -68.25496 -5.0794555 40.29099 
320 -6.2876288 -15.20878 -1.2119449 -81.761224 -1.2119449 -81.761224 -6.25365 32.15227 
330 -7.7200749 -34.70437 -0.84987947 -95.395222 -0.84987947 -95.395222 -7.6781325 24.442553 
340 -9.406512 -55.276235 -0.57252503 -109.06079 -0.57252503 -109.06079 -9.3527694 17.737856 
350 -11.297448 -77.421375 -0.37678515 -122.64811 -0.37678515 -122.64811 -11.227671 12.735514 
360 -13.256489 -101.61123 -0.25096255 -136.06863 -0.25096255 -136.06863 -13.168708 10.052513 
370 -15.043348 -127.76087 -0.17798685 -149.27962 -0.17798685 -149.27962 -14.943877 9.6660702 
380 -16.414727 -154.46157 -0.13961317 -162.29194 -0.13961317 -162.29194 -16.321721 10.184884 
390 -17.34827 -179.26425 -0.11994515 -175.16309 -0.11994515 -175.16309 -17.282208 9.1454922 
400 -18.097039 159.65671 -0.10745522 172.01703 -0.10745522 172.01703 -18.068901 4.6031099 
410 -19.004137 142.73995 -0.095484445 159.14081 -0.095484445 159.14081 -19.017686 -4.100752 
420 -20.408149 129.75804 -0.081656638 146.09285 -0.081656638 146.09285 -20.469221 -16.970656 
430 -22.793981 120.87061 -0.066822206 132.75221 -0.066822206 132.75221 -22.924922 -34.325256 
440 -27.479026 119.64736 -0.054362172 118.98507 -0.054362172 118.98507 -27.80155 -59.58761 
450 -36.500482 -170.00914 -0.051062426 104.62805 -0.051062426 104.62805 -37.910191 -166.64207 
460 -24.198057 -112.23526 -0.071303205 89.467916 -0.071303205 89.467916 -24.208174 108.05322 
470 -17.106187 -114.0069 -0.14653094 73.235962 -0.14653094 73.235962 -17.120736 78.638469 
480 -12.196713 -122.52121 -0.34023516 55.659807 -0.34023516 55.659807 -12.224157 52.405935 
490 -8.4038418 -134.46562 -0.760404 36.638489 -0.760404 36.638489 -8.4372996 26.491019 
500 -5.4880682 -148.78173 -1.5442557 16.545634 -1.5442557 16.545634 -5.5230012 0.72507856 
510 -3.3898588 -164.16204 -2.7903352 -3.5962471 -2.7903352 -3.5962471 -3.4238505 -24.108234 
520 -2.0101657 -179.09754 -4.4804175 -22.473494 -4.4804175 -22.473494 -2.0421045 -46.873185 
530 -1.1719182 167.49124 -6.4864938 -39.164773 -6.4864938 -39.164773 -1.2014124 -66.799445 
540 -0.68652393 155.97835 -8.6540476 -53.426048 -8.6540476 -53.426048 -0.71354812 -83.769879 
550 -0.4101567 146.25271 -10.86513 -65.473622 -10.86513 -65.473622 -0.43485519 -98.104532 
560 -0.25203997 138.02277 -13.049677 -75.682987 -13.049677 -75.682987 -0.27462293 -110.262 
570 -0.16001347 130.98813 -15.172607 -84.420898 -15.172607 -84.420898 -0.18070538 -120.67489 
580 -0.10519362 124.89802 -17.219362 -91.990432 -17.219362 -91.990432 -0.12420899 -129.6982 
590 -0.071681407 119.55816 -19.186202 -98.62712 -19.186202 -98.62712 -0.089214865 -137.60841 
600 -0.05063709 114.82158 -21.074684 -104.51058 -21.074684 -104.51058 -0.066860632 -144.61756 
610 -0.037059542 110.57728 -22.888759 -109.77781 -22.888759 -109.77781 -0.052123044 -150.88836 
620 -0.028059703 106.74063 -24.633289 -114.53419 -24.633289 -114.53419 -0.042092971 -156.54679 
630 -0.021932268 103.24628 -26.313318 -118.86179 -26.313318 -118.86179 -0.03504727 -161.69144 
640 -0.017648444 100.04299 -27.933723 -122.82538 -27.933723 -122.82538 -0.029941745 -166.40047 
650 -0.014573998 97.089988 -29.499058 -126.47675 -29.499058 -126.47675 -0.026129285 -170.73658 
660 -0.012310468 94.354377 -31.01351 -129.85784 -31.01351 -129.85784 -0.023200122 -174.75062 
670 -0.010602015 91.809253 -32.480886 -133.00303 -32.480886 -133.00303 -0.020888954 -178.48432 
680 -0.0092815985 89.43235 -33.90464 -135.94076 -33.90464 -135.94076 -0.019020857 178.02778 
690 -0.0082379172 87.205042 -35.287895 -138.69481 -35.287895 -138.69481 -0.017477528 174.75682 
700 -0.0073957242 85.111588 -36.63348 -141.28526 -36.63348 -141.28526 -0.016178165 171.67848 
710 -0.006702995 83.138574 -37.943959 -143.72916 -37.943959 -143.72916 -0.015065547 168.77211 
720 -0.0061233332 81.274467 -39.221656 -146.04112 -39.221656 -146.04112 -0.014099046 166.02008 
730 -0.0056307746 79.509289 -40.468687 -148.23376 -40.468687 -148.23376 -0.013249115 163.40719 
740 -0.0052065642 77.834341 -41.68698 -150.31801 -41.68698 -150.31801 -0.012493769 160.92033 
750 -0.0048367938 76.242 -42.878298 -152.30342 -42.878298 -152.30342 -0.011816408 158.54807 
760 -0.0045111791 74.725545 -44.044253 -154.19835 -44.044253 -154.19835 -0.011204331 156.2804 
770 -0.0042218309 73.279024 -45.186326 -156.0102 -45.186326 -156.0102 -0.010647652 154.10857 
780 -0.0039626941 71.897137 -46.305878 -157.74549 -46.305878 -157.74549 -0.010138426 152.02481 
790 -0.0037290904 70.575147 -47.404167 -159.41005 -47.404167 -159.41005 -0.0096702362 150.02227 
800 -0.0035172224 69.308805 -48.482353 -161.00906 -48.482353 -161.00906 -0.0092381911 148.09483 
810 -0.0033240888 68.094283 -49.54151 -162.54718 -49.54151 -162.54718 -0.0088377633 146.23704 
820 -0.0031472547 66.92812 -50.582635 -164.02858 -50.582635 -164.02858 -0.0084654628 144.44402 
830 -0.0029846925 65.807181 -51.606656 -165.45705 -51.606656 -165.45705 -0.0081184855 142.71137 
840 -0.0028347481 64.728611 -52.614437 -166.836 -52.614437 -166.836 -0.0077940947 141.03513 
850 -0.0026960047 63.689812 -53.606783 -168.16852 -53.606783 -168.16852 -0.0074900841 139.41172 
860 -0.0025672703 62.688404 -54.584448 -169.45745 -54.584448 -169.45745 -0.0072046483 137.83788 
870 -0.0024475379 61.722208 -55.548138 -170.70534 -55.548138 -170.70534 -0.0069360759 136.31066 
880 -0.0023359043 60.789221 -56.498516 -171.91457 -56.498516 -171.91457 -0.0066829297 134.82737 
890 -0.0022316255 59.887601 -57.436204 -173.08727 -57.436204 -173.08727 -0.0064439164 133.38553 
900 -0.0021340346 59.015646 -58.361787 -174.22545 -58.361787 -174.22545 -0.0062180275 131.98289 
910 -0.0020425475 58.171783 -59.275819 -175.33093 -59.275819 -175.33093 -0.0060040002 130.61739 
920 -0.0019566345 57.354558 -60.178821 -176.40539 -60.178821 -176.40539 -0.0058011434 129.2871 
930 -0.0018758434 56.562617 -61.071287 -177.4504 -61.071287 -177.4504 -0.0056086526 127.99027 
940 -0.001799764 55.794706 -61.953683 -178.46739 -61.953683 -178.46739 -0.0054255148 126.72527 
950 -0.0017280384 55.049656 -62.826452 -179.45771 -62.826452 -179.45771 -0.0052513345 125.4906 
960 -0.0016603205 54.326376 -63.690016 179.5774 -63.690016 179.5774 -0.0050854797 124.28486 
970 -0.0015963181 53.623849 -64.544775 178.63677 -64.544775 178.63677 -0.0049273228 123.10675 
980 -0.0015357632 52.941123 -65.39111 177.71933 -65.39111 177.71933 -0.004776384 121.95507 
990 -0.0014784179 52.277307 -66.229384 176.82405 -66.229384 176.82405 -0.0046321645 120.82868 
1000 -0.0014240504 51.631566 -67.059945 175.95001 -67.059945 175.95001 -0.0044944698 119.72654 

!Noise Parameters
!Freq  NFmin(dB)  Mag(GammaOpt)  Ang(GammaOpt)(deg)  rn(normalized)
100 0.060967862 0.891105 -26.159497 0.11567892
110 0.059285947 0.8644055 -14.628061 0.092340184
120 0.057491275 0.83394736 -3.1910859 0.073047835
130 0.055595392 0.79931224 8.3251723 0.057089513
140 0.053615666 0.76011671 20.095801 0.043939758
150 0.051568813 0.71613522 32.302512 0.033192576
160 0.049474807 0.66743701 45.140055 0.024519933
170 0.047355745 0.61458064 58.82443 0.017645466
180 0.045236742 0.55883 73.600946 0.01232794
190 0.043144655 0.50236301 89.745562 0.0083504322
200 0.041110703 0.44834948 107.5372 0.0055141063
210 0.03916707 0.40078709 127.16007 0.0036340548
220 0.037349751 0.36375801 148.49246 0.0025377008
230 0.035695843 0.34003989 170.86863 0.0020640398
240 0.03424063 0.32959643 -166.87767 0.0020638154
250 0.033018188 0.32923966 -145.91142 0.0024006601
260 0.032055588 0.33407412 -126.88076 0.0029520387
270 0.031370981 0.33934166 -109.85882 0.0036107461
280 0.030970265 0.34144941 -94.591623 0.0042861014
290 0.030845486 0.3381195 -80.726911 0.0049049815
300 0.030975724 0.32814185 -67.923319 0.0054127293
310 0.031328364 0.31108795 -55.886073 0.0057731769
320 0.031864489 0.28706471 -44.361317 0.0059685672
330 0.032542085 0.25658588 -33.115004 0.0059985186
340 0.033321337 0.22049779 -21.897343 0.0058783514
350 0.034167618 0.17998414 -10.356996 0.005636708
360 0.03505549 0.13661213 2.1792777 0.005312346
370 0.035971127 0.092548868 17.513088 0.0049502771
380 0.036915887 0.051739976 42.651538 0.004597306
390 0.037908617 0.029715031 106.82387 0.0042970219
400 0.03898997 0.04868655 166.17593 0.0040848281
410 0.040224338 0.076047599 -172.29011 0.0039828856
420 0.041702889 0.097691337 -161.44126 0.0039959463
430 0.043542493 0.11109243 -155.98167 0.0041082768
440 0.045883043 0.11737247 -155.84509 0.0042828732
450 0.04887903 0.12283561 -162.19526 0.0044634802
460 0.052691217 0.14063625 -173.53129 0.0045815901
470 0.057472635 0.18353426 176.86968 0.0045684964
480 0.063361101 0.25274628 173.60301 0.004375924
490 0.070476523 0.34070491 175.83728 0.0040067129
500 0.078920842 0.43755957 -178.58378 0.0035581055
510 0.08878072 0.53392511 -171.29901 0.0032816069
520 0.10013618 0.6225073 -163.36624 0.0036632098
530 0.11306304 0.69906012 -155.4323 0.0055283851
540 0.12763731 0.76226711 -147.86142 0.010177904
550 0.14393969 0.81285594 -140.8283 0.019560983
560 0.16205339 0.85257904 -134.38964 0.036493095
570 0.1820703 0.88345965 -128.53594 0.064928761
580 0.20408624 0.90738225 -123.22534 0.11029798
590 0.22820758 0.92593015 -118.40362 0.17992248
600 0.25454367 0.94036354 -114.01492 0.28351983
610 0.2832141 0.95165497 -110.00685 0.43382176
620 0.31434272 0.96054402 -106.33255 0.64731583
630 0.34806422 0.96758867 -102.9511 0.94514436
640 0.38452119 0.97320972 -99.827235 1.3541774
650 0.42385753 0.97772548 -96.930739 1.9082923
660 0.46623442 0.98137697 -94.235748 2.6499124
670 0.51181102 0.98434832 -91.720119 3.6317814
680 0.56076435 0.98678081 -89.364835 4.9191957
690 0.61326868 0.98878354 -87.153514 6.5923732
700 0.66952512 0.99044139 -85.071984 8.7497562
710 0.72972295 0.99182073 -83.107929 11.511041
720 0.79407088 0.99297389 -81.250607 15.021663
730 0.86278638 0.99394238 -79.490601 19.457561
740 0.9360987 0.99475922 -77.819623 25.030669
750 1.0142359 0.995451 -76.230347 31.99551
760 1.0974497 0.99603907 -74.716275 40.656988
770 1.1859928 0.99654082 -73.271613 51.379376
780 1.2801236 0.99697038 -71.891187 64.595998
790 1.3801161 0.99733928 -70.57035 80.821131
800 1.4862614 0.99765711 -69.304923 100.66747
810 1.5988292 0.99793171 -68.091128 124.85466
820 1.718121 0.9981696 -66.925548 154.23503
830 1.8444546 0.99837626 -65.805076 189.81647
840 1.9781254 0.99855621 -64.726884 232.77692
850 2.119438 0.99871327 -63.688389 284.50172
860 2.2687176 0.99885066 -62.687229 346.61925
870 2.4262755 0.99897109 -61.721235 421.02985
880 2.5924137 0.99907688 -60.788413 509.9578
890 2.7674452 0.99916997 -59.886928 615.99787
900 2.9516979 0.99925205 -59.015084 742.19119
910 3.1454072 0.99932453 -58.171314 892.03559
920 3.3488885 0.99938865 -57.354164 1069.6594
930 3.5624118 0.99944547 -56.562286 1279.8413
940 3.786127 0.99949587 -55.794428 1528.0533
950 4.020332 0.99954066 -55.049421 1820.778
960 4.2651839 0.99958052 -54.326177 2165.4639
970 4.5208025 0.99961604 -53.623681 2570.7086
980 4.7873006 0.99964773 -52.94098 3046.5017
990 5.0647307 0.99967604 -52.277186 3604.3585
1000 5.3532119 0.99970136 -51.631463 4257.8211
